unsat
(define-fun f ((x0 (BitVec 64)) (x1 (BitVec 64))) (BitVec 64) (bvmul x1 #b0000000000000000000000000000000000000000000000000000000000010001))
(define-fun f ((x0 (BitVec 64)) (x1 (BitVec 64))) (BitVec 64) (bvmul x1 #b0000000000000000000000000000000000000000000000000000000000010001))
int-arith34.sl running time : 0 m .042168948 s
times : .042168948
